webassembly/ejemplos_dzn/10/folder10_json_89.dzn
TERM = { '.', 's(2)', 's(5)', 's(4)', 'in_1', 'local_1', 'in_6', 'in_2', 'in_4', 'in_3', 's(1)', 's(0)', 'in_5', 's(3)', 'in_0'};
null = '.';
s = 10;
n = 12;
ndeps = 4;
max_registers_sz = 4;
NR = 1;
registers = [|'local_1', 's(3)'|];
dependencies = [|'i32.store16_0', 'i32.store16_3', |'i32.store16_3', 'i32.store_5', |'i32.store_5', 'call[function_index(0)]_6', |'call[function_index(0)]_6', 'i32.load16_u_8'|];
GET_ENUM = { GET1, GET2, GET3, GET4, GET5};
SET_ENUM = { SET1, SET2, SET3, SET4, SET5};
TEE_ENUM = { TEE1, TEE2, TEE3, TEE4, TEE5};
N = 7;
OP = { 'call[function_index(0)]_6', 'i32.store16_0', 'i32.const_0', 'i32.sub_0', 'i32.store16_3', 'i32.store_5', 'i32.load16_u_8' };
in_ops = [0, 2, 0, 2, 2, 2, 1 ];
out_ops = [3, 0, 1, 1, 0, 0, 1 ];
in1 = ['.', 'in_0', '.', 's(5)', 's(0)', 'in_5', 's(2)' ];
in2 = ['.', 'in_1', '.', 'in_2', 'in_3', 'in_6', '.' ];
in3 = ['.', '.', '.', '.', '.', '.', '.' ];
out1 = ['s(3)', '.', 's(5)', 's(0)', '.', '.', 's(4)' ];
out2 = ['s(2)', '.', '.', '.', '.', '.', '.' ];
out3 = ['s(1)', '.', '.', '.', '.', '.', '.' ];
comm = [false, false, false, false, false, false, false ];
gas = [1, 1, 1, 1, 1, 1, 1 ];
sz = [1, 1, 1, 1, 1, 1, 1 ];
stor = [true, true, false, false, true, true, false ];
lb = [ 1, 1, 1, 1, 1, 1, 1 ];
ub = [ 10, 10, 10, 10, 10, 10, 10 ];
startstack = [ 'in_0', 'in_1', 'in_2', 'in_3', 'in_4', 'in_5', 'in_6', null, null, null, null, null ];
endstack = [ 's(3)', 's(4)', 's(1)', null, null, null, null, null, null, null, null, null ];
