webassembly/ejemplos_results/folder10_json_89.txt
=====UNSATISFIABLE=====
% time elapsed: 0.39 s
